proyfinal/src/viki/013/experimentInOfficeAgust.take6.output/8f603554-61bf-4b72-82f5-773c4aef7091.als.dat
{'cnf.clauses': '118081',
 'cnf.totvars': '69608',
 'conflict literals': '175',
 'conflicts': '36',
 'decisions': '2539',
 'memused.mb': '16.74',
 'outcome': 'UNSAT',
 'propagations': '73575',
 'restarts': '1',
 'solver.msecs': 29,
 'task.msecs': 137}
