proyfinal/src/viki/013/experimentInOfficeAgust.take6.output/8f603554-61bf-4b72-82f5-773c4aef7091.als.out
Reading from standard input... Use '--help' for help.
============================[ Problem Statistics ]=============================
|                                                                             |
|  Number of variables:         69608                                         |
|  Number of clauses:          118081                                         |
|  Parse time:                   0.02 s                                       |
|                                                                             |
============================[ Search Statistics ]==============================
| Conflicts |          ORIGINAL         |          LEARNT          | Progress |
|           |    Vars  Clauses Literals |    Limit  Clauses Lit/Cl |          |
===============================================================================
===============================================================================
restarts              : 1
conflicts             : 36             (1201 /sec)
decisions             : 2539           (0.00 % random) (84701 /sec)
propagations          : 73575          (2454464 /sec)
conflict literals     : 175            (18.60 % deleted)
Memory used           : 16.74 MB
CPU time              : 0.029976 s

UNSATISFIABLE
